# Objective value = 298.002527828051
x[0] 0
x[1] 1
x[2] 1
x[3] 1
x[4] 1
x[5] 0
x[6] 0
x[7] 1
x[8] 0
x[9] 0
x[10] 1
x[11] 0
x[12] 1
x[13] 0
x[14] 0
x[15] 0
x[16] 0
x[17] 1
x[18] 0
x[19] 1
x[20] 1
x[21] 0
x[22] 0
x[23] 0
x[24] 1
x[25] 1
x[26] 0
x[27] 1
x[28] 1
x[29] 1
x[30] 0
x[31] 1
x[32] 0
x[33] 1
x[34] 0
x[35] 0
x[36] 1
x[37] 0
x[38] 0
x[39] 1
x[40] 0
x[41] 1
x[42] 1
x[43] 1
x[44] 0
x[45] 1
x[46] 0
x[47] 0
x[48] 0
x[49] 0
x[50] 0
x[51] 0
x[52] 1
x[53] 0
x[54] 0
x[55] 1
x[56] 0
x[57] 0
x[58] 0
x[59] 0
x[60] 1
x[61] 0
x[62] 1
x[63] 1
x[64] 1
x[65] 1
x[66] 0
x[67] 0
x[68] 1
x[69] 1
x[70] 0
x[71] 0
x[72] 1
x[73] 0
x[74] 0
x[75] 0
x[76] 0
x[77] 0
x[78] 0
x[79] 1
x[80] 0
x[81] 1
x[82] 0
x[83] 0
x[84] 0
x[85] 0
x[86] 1
x[87] 1
x[88] 0
x[89] 0
x[90] 1
x[91] 1
x[92] 0
x[93] 1
x[94] 1
x[95] 1
x[96] 1
x[97] 0
x[98] 0
x[99] 1
x[100] 0
x[101] 0
x[102] 0
x[103] 1
x[104] 0
x[105] 1
x[106] 1
x[107] 1
x[108] 0
x[109] 0
x[110] 1
x[111] 0
x[112] 0
x[113] 0
x[114] 0
x[115] 0
x[116] 1
x[117] 1
x[118] 0
x[119] 0
x[120] 1
x[121] 0
x[122] 0
x[123] 1
x[124] 1
x[125] 0
x[126] 0
x[127] 0
x[128] 0
x[129] 0
x[130] 0
x[131] 1
x[132] 1
x[133] 1
x[134] 1
x[135] 0
x[136] 0
x[137] 1
x[138] 0
x[139] 0
x[140] 0
x[141] 1
x[142] 1
x[143] 0
x[144] 1
x[145] 0
x[146] 1
x[147] 0
x[148] 0
x[149] 1
x[150] 1
x[151] 1
x[152] 1
x[153] 0
x[154] 0
x[155] 1
x[156] 0
x[157] 1
x[158] 0
x[159] 0
x[160] 0
x[161] 1
x[162] 1
x[163] 1
x[164] 1
x[165] 1
x[166] 1
x[167] 0
x[168] 1
x[169] 0
x[170] 1
x[171] 0
x[172] 1
x[173] 0
x[174] 1
x[175] 0
x[176] 1
x[177] 1
x[178] 1
x[179] 0
x[180] 0
x[181] 0
x[182] 1
x[183] 0
x[184] 0
x[185] 0
x[186] 0
x[187] 0
x[188] 1
x[189] 0
x[190] 1
x[191] 0
x[192] 1
x[193] 1
x[194] 1
x[195] 0
x[196] 1
x[197] 1
x[198] 1
x[199] 1
x[200] 1
x[201] 0
x[202] 0
x[203] 1
x[204] 1
x[205] 1
x[206] 0
x[207] 1
x[208] 1
x[209] 1
x[210] 1
x[211] 1
x[212] 1
x[213] 0
x[214] 0
x[215] 1
x[216] 0
x[217] 0
x[218] 1
x[219] 1
x[220] 0
x[221] 0
x[222] 1
x[223] 0
x[224] 0
x[225] 0
x[226] 1
x[227] 0
x[228] 0
x[229] 1
x[230] 1
x[231] 1
x[232] 1
x[233] 1
x[234] 1
x[235] 1
x[236] 0
x[237] 0
x[238] 1
x[239] 1
x[240] 1
x[241] 0
x[242] 0
x[243] 1
x[244] 1
x[245] 1
x[246] 1
x[247] 1
x[248] 0
x[249] 0
x[250] 1
x[251] 1
x[252] 1
x[253] 0
x[254] 1
x[255] 1
x[256] 1
x[257] 1
x[258] 0
x[259] 0
x[260] 1
x[261] 1
x[262] 0
x[263] 1
x[264] 1
x[265] 1
x[266] 0
x[267] 0
x[268] 0
x[269] 1
x[270] 1
x[271] 0
x[272] 1
x[273] 1
x[274] 0
x[275] 0
x[276] 1
x[277] 0
x[278] 0
x[279] 1
x[280] 1
x[281] 1
x[282] 0
x[283] 1
x[284] 0
x[285] 0
x[286] 0
x[287] 0
x[288] 0
x[289] 1
x[290] 0
x[291] 0
x[292] 1
x[293] 0
x[294] 0
x[295] 1
x[296] 0
x[297] 1
x[298] 1
x[299] 0
x[300] 1
x[301] 1
x[302] 0
x[303] 0
x[304] 1
x[305] 1
x[306] 0
x[307] 0
x[308] 1
x[309] 1
x[310] 1
x[311] 0
x[312] 0
x[313] 1
x[314] 0
x[315] 0
x[316] 1
x[317] 0
x[318] 0
x[319] 1
x[320] 0
x[321] 0
x[322] 0
x[323] 0
x[324] 1
x[325] 1
x[326] 1
x[327] 1
x[328] 1
x[329] 1
x[330] 0
x[331] 1
x[332] 1
x[333] 0
x[334] 0
x[335] 0
x[336] 0
x[337] 1
x[338] 0
x[339] 0
x[340] 1
x[341] 0
x[342] 0
x[343] 1
x[344] 0
x[345] 0
x[346] 1
x[347] 1
x[348] 0
x[349] 1
x[350] 1
x[351] 1
x[352] 0
x[353] 0
x[354] 0
x[355] 1
x[356] 1
x[357] 1
x[358] 0
x[359] 1
x[360] 0
x[361] 0
x[362] 1
x[363] 0
x[364] 1
x[365] 1
x[366] 0
x[367] 0
x[368] 0
x[369] 1
x[370] 0
x[371] 0
x[372] 0
x[373] 1
x[374] 0
x[375] 1
x[376] 0
x[377] 1
x[378] 1
x[379] 0
x[380] 1
x[381] 0
x[382] 1
x[383] 0
x[384] 1
x[385] 0
x[386] 0
x[387] 1
x[388] 0
x[389] 1
x[390] 0
x[391] 1
x[392] 1
x[393] 1
x[394] 0
x[395] 1
x[396] 0
x[397] 1
x[398] 0
x[399] 1
x[400] 0
x[401] 0
x[402] 1
x[403] 1
x[404] 1
x[405] 0
x[406] 1
x[407] 0
x[408] 1
x[409] 1
x[410] 1
x[411] 1
x[412] 1
x[413] 0
x[414] 1
x[415] 0
x[416] 0
x[417] 0
x[418] 1
x[419] 1
x[420] 0
x[421] 1
x[422] 0
x[423] 1
x[424] 1
x[425] 0
x[426] 1
x[427] 0
x[428] 0
x[429] 1
x[430] 0
x[431] 0
x[432] 0
x[433] 0
x[434] 0
x[435] 0
x[436] 1
x[437] 1
x[438] 1
x[439] 1
x[440] 1
x[441] 1
x[442] 1
x[443] 0
x[444] 1
x[445] 1
x[446] 1
x[447] 0
x[448] 1
x[449] 1
x[450] 0
x[451] 0
x[452] 0
x[453] 0
x[454] 1
x[455] 0
x[456] 0
x[457] 0
x[458] 0
x[459] 1
x[460] 1
x[461] 0
x[462] 1
x[463] 0
x[464] 0
x[465] 0
x[466] 0
x[467] 0
x[468] 0
x[469] 1
x[470] 0
x[471] 0
x[472] 1
x[473] 0
x[474] 0
x[475] 0
x[476] 1
x[477] 1
x[478] 1
x[479] 1
x[480] 0
x[481] 0
x[482] 1
x[483] 1
x[484] 0
x[485] 0
x[486] 0
x[487] 0
x[488] 0
x[489] 1
x[490] 0
x[491] 0
x[492] 1
x[493] 1
x[494] 0
x[495] 1
x[496] 0
x[497] 1
x[498] 0
x[499] 0
x[500] 1
x[501] 0
x[502] 1
x[503] 1
x[504] 0
x[505] 1
x[506] 0
x[507] 0
x[508] 0
x[509] 0
x[510] 1
x[511] 1
x[512] 1
x[513] 0
x[514] 0
x[515] 1
x[516] 0
x[517] 1
x[518] 1
x[519] 0
x[520] 0
x[521] 1
x[522] 1
x[523] 0
x[524] 0
x[525] 1
x[526] 1
x[527] 0
x[528] 1
x[529] 1
x[530] 1
x[531] 0
x[532] 0
x[533] 1
x[534] 0
x[535] 0
x[536] 0
x[537] 0
x[538] 1
x[539] 1
x[540] 1
x[541] 0
x[542] 0
x[543] 0
x[544] 1
x[545] 1
x[546] 1
x[547] 1
x[548] 1
x[549] 1
x[550] 0
x[551] 0
x[552] 0
x[553] 0
x[554] 0
x[555] 1
x[556] 1
x[557] 0
x[558] 1
x[559] 1
x[560] 1
x[561] 0
x[562] 0
x[563] 0
x[564] 1
x[565] 0
x[566] 0
x[567] 1
x[568] 1
x[569] 1
x[570] 0
x[571] 0
x[572] 1
x[573] 1
x[574] 1
x[575] 1
x[576] 1
x[577] 1
x[578] 0
x[579] 1
x[580] 0
x[581] 1
x[582] 1
x[583] 0
x[584] 1
x[585] 0
x[586] 0
x[587] 0
x[588] 1
x[589] 0
x[590] 0
x[591] 0
x[592] 0
x[593] 1
x[594] 0
x[595] 1
x[596] 0
x[597] 1
x[598] 1
x[599] 0
x[600] 1
x[601] 0
x[602] 1
x[603] 0
x[604] 1
x[605] 1
x[606] 1
x[607] 0
x[608] 1
x[609] 0
x[610] 1
x[611] 0
x[612] 0
x[613] 0
x[614] 0
x[615] 0
x[616] 0
x[617] 0
x[618] 0
x[619] 0
x[620] 0
x[621] 0
x[622] 0
x[623] 1
x[624] 1
x[625] 1
x[626] 1
x[627] 1
x[628] 1
x[629] 0
x[630] 0
x[631] 1
x[632] 0
x[633] 1
x[634] 1
x[635] 0
x[636] 1
x[637] 1
x[638] 1
x[639] 1
x[640] 1
x[641] 0
x[642] 1
x[643] 1
x[644] 1
x[645] 0
x[646] 1
x[647] 0
x[648] 0
x[649] 1
x[650] 0
x[651] 1
x[652] 1
x[653] 1
x[654] 0
x[655] 0
x[656] 0
x[657] 0
x[658] 1
x[659] 0
x[660] 1
x[661] 0
x[662] 1
x[663] 0
x[664] 0
x[665] 0
x[666] 1
x[667] 1
x[668] 1
x[669] 0
x[670] 1
x[671] 0
x[672] 1
x[673] 0
x[674] 1
x[675] 0
x[676] 0
x[677] 1
x[678] 0
x[679] 1
x[680] 1
x[681] 0
x[682] 1
x[683] 1
x[684] 0
x[685] 0
x[686] 1
x[687] 0
x[688] 0
x[689] 1
x[690] 1
x[691] 0
x[692] 0
x[693] 0
x[694] 1
x[695] 1
x[696] 0
x[697] 1
x[698] 1
x[699] 1
x[700] 1
x[701] 0
x[702] 1
x[703] 1
x[704] 0
x[705] 0
x[706] 1
x[707] 0
x[708] 0
x[709] 1
x[710] 0
x[711] 1
x[712] 1
x[713] 0
x[714] 1
x[715] 0
x[716] 0
x[717] 1
x[718] 0
x[719] 0
x[720] 1
x[721] 0
x[722] 0
x[723] 1
x[724] 1
x[725] 1
x[726] 0
x[727] 0
x[728] 1
x[729] 1
x[730] 0
x[731] 0
x[732] 0
x[733] 1
x[734] 0
x[735] 1
x[736] 0
x[737] 0
x[738] 0
x[739] 0
x[740] 1
x[741] 1
x[742] 1
x[743] 1
x[744] 0
x[745] 1
x[746] 1
x[747] 0
x[748] 0
x[749] 0
x[750] 0
x[751] 1
x[752] 0
x[753] 0
x[754] 0
x[755] 0
x[756] 0
x[757] 0
x[758] 0
x[759] 0
x[760] 1
x[761] 1
x[762] 0
x[763] 0
x[764] 1
x[765] 1
x[766] 1
x[767] 1
x[768] 1
x[769] 0
x[770] 1
x[771] 0
x[772] 1
x[773] 0
x[774] 1
x[775] 1
x[776] 0
x[777] 1
x[778] 0
x[779] 0
x[780] 0
x[781] 1
x[782] 1
x[783] 1
x[784] 1
x[785] 0
x[786] 1
x[787] 0
x[788] 1
x[789] 1
x[790] 0
x[791] 0
x[792] 1
x[793] 0
x[794] 0
x[795] 1
x[796] 0
x[797] 0
x[798] 1
x[799] 0
x[800] 1
x[801] 0
x[802] 1
x[803] 1
x[804] 1
x[805] 1
x[806] 0
x[807] 0
x[808] 0
x[809] 0
x[810] 0
x[811] 0
x[812] 0
x[813] 0
x[814] 1
x[815] 1
x[816] 0
x[817] 1
x[818] 0
x[819] 0
x[820] 0
x[821] 1
x[822] 0
x[823] 0
x[824] 1
x[825] 0
x[826] 1
x[827] 0
x[828] 1
x[829] 1
x[830] 0
x[831] 0
x[832] 1
x[833] 1
x[834] 0
x[835] 1
x[836] 0
x[837] 1
x[838] 1
x[839] 1
x[840] 0
x[841] 0
x[842] 1
x[843] 1
x[844] 0
x[845] 1
x[846] 1
x[847] 0
x[848] 0
x[849] 0
x[850] 0
x[851] 0
x[852] 0
x[853] 0
x[854] 1
x[855] 0
x[856] 1
x[857] 0
x[858] 0
x[859] 1
x[860] 1
x[861] 0
x[862] 0
x[863] 0
x[864] 1
x[865] 1
x[866] 1
x[867] 0
x[868] 0
x[869] 0
x[870] 1
x[871] 0
x[872] 1
x[873] 1
x[874] 1
x[875] 0
x[876] 0
x[877] 0
x[878] 1
x[879] 0
x[880] 1
x[881] 1
x[882] 0
x[883] 1
x[884] 0
x[885] 0
x[886] 1
x[887] 0
x[888] 1
x[889] 1
x[890] 0
x[891] 0
x[892] 0
x[893] 0
x[894] 0
x[895] 1
x[896] 1
x[897] 0
x[898] 1
x[899] 0
x[900] 0
x[901] 0
x[902] 0
x[903] 0
x[904] 1
x[905] 0
x[906] 0
x[907] 1
x[908] 1
x[909] 0
x[910] 1
x[911] 0
x[912] 0
x[913] 0
x[914] 0
x[915] 0
x[916] 0
x[917] 0
x[918] 0
x[919] 1
x[920] 1
x[921] 0
x[922] 0
x[923] 0
x[924] 0
x[925] 1
x[926] 0
x[927] 1
x[928] 0
x[929] 0
x[930] 1
x[931] 1
x[932] 1
x[933] 1
x[934] 0
x[935] 1
x[936] 0
x[937] 1
x[938] 1
x[939] 0
x[940] 1
x[941] 0
x[942] 0
x[943] 0
x[944] 0
x[945] 0
x[946] 1
x[947] 1
x[948] 0
x[949] 1
x[950] 0
x[951] 0
x[952] 1
x[953] 1
x[954] 1
x[955] 0
x[956] 1
x[957] 0
x[958] 1
x[959] 1
x[960] 0
x[961] 1
x[962] 0
x[963] 1
x[964] 1
x[965] 1
x[966] 1
x[967] 1
x[968] 0
x[969] 0
x[970] 1
x[971] 0
x[972] 0
x[973] 0
x[974] 0
x[975] 0
x[976] 0
x[977] 0
x[978] 0
x[979] 1
x[980] 1
x[981] 0
x[982] 1
x[983] 0
x[984] 0
x[985] 0
x[986] 1
x[987] 0
x[988] 0
x[989] 0
x[990] 0
x[991] 1
x[992] 0
x[993] 1
x[994] 0
x[995] 1
x[996] 1
x[997] 0
x[998] 1
x[999] 0
